146692
51, 100, 72, 82, 33, 73, 39, 49, 84, 53, 7, 32, 75, 35, 61, 47, 14, 26, 34, 83, 57, 80, 89, 76, 58, 28, 27, 10, 59, 66, 44, 87, 1, 43, 79, 91, 60, 96, 15, 4, 103, 99, 68, 50, 74, 22, 21, 17, 90, 64, 16, 20, 56, 40, 6, 77, 46, 86, 62, 24, 55, 48, 12, 23, 97, 29, 38, 104, 105, 3, 70, 36, 37, 71, 92, 9, 85, 11, 41, 67, 95, 54, 8, 102, 69, 42, 19, 81, 101, 78, 94, 18, 63, 93, 52, 45, 25, 2, 106, 31, 13, 30, 65, 88, 5, 98
